computational_data/solutions/ER_n30_p035_s7.sol
Optimal - objective value 7.00000000
      0 r_0                         1                       1
     10 r_10                        1                       1
     18 r_18                        1                       1
     20 r_20                        1                       1
     38 b_8                         1                       1
     44 b_14                        1                       1
     57 b_27                        1                       1
